10J3M/DAT/10J3MNLA-2.dat
10 3
28.0352 785.9724
10.2802 105.6825
26.5921 707.1398
20.2492 410.0301
22.3557 499.7773
18.2953 334.718
24.2214 586.6762
20.3654 414.7495
12.2771 150.7272
14.7825 218.5223
1404.6651