10J3M/SOL/10J3MNLA-2.sol
solution status: optimal solution found
objective value:                               83.977
x#1#1                               0.073825631121762 	(obj:0)
x#1#2                               0.142132358116533 	(obj:0)
x#1#3                               0.784042010761704 	(obj:0)
x#2#3                                               1 	(obj:0)
x#3#2                                               1 	(obj:0)
x#4#1                                               1 	(obj:0)
x#5#1                                               1 	(obj:0)
x#6#2                                               1 	(obj:0)
x#7#1                                               1 	(obj:0)
x#8#2                                               1 	(obj:0)
x#9#3                                               1 	(obj:0)
x#10#1                              0.193060854868548 	(obj:0)
x#10#2                              0.129712815847149 	(obj:0)
x#10#3                              0.677226329284303 	(obj:0)
z                                              83.977 	(obj:1)
